results/res_prop_muc/res_Cimatti_mathsat_cores/QF_RDL/fischer9-mutex-9.smt.smt2.out
### boolMucExtractionTime 100253999
