results/res_prop_muc/res_Cimatti_mathsat_cores/QF_RDL/fischer9-mutex-9.smt.smt2.res
unsat
( c10018
  c1002
  c10028
  c10038
  c10048
  c10058
  c1006
  c10067
  c10076
  c1010
  c10108
  c10122
  c10126
  c10130
  c10134
  c10138
  c1014
  c10142
  c10146
  c10150
  c10154
  c10158
  c10162
  c10166
  c10170
  c10174
  c10178
  c1018
  c10182
  c10186
  c10190
  c1022
  c103
  c10334
  c10335
  c10336
  c10337
  c10338
  c10339
  c10340
  c10341
  c10342
  c10343
  c10344
  c10345
  c10346
  c10347
  c10348
  c10349
  c10350
  c10351
  c10361
  c10363
  c10367
  c10371
  c10375
  c10379
  c10383
  c10387
  c10391
  c10395
  c10398
  c10402
  c10406
  c10410
  c10414
  c10418
  c10422
  c10426
  c10430
  c10435
  c10439
  c10443
  c10447
  c10451
  c10455
  c10459
  c10463
  c10467
  c10471
  c10475
  c10479
  c10483
  c10487
  c10491
  c10495
  c10499
  c10503
  c10506
  c10507
  c10510
  c10511
  c10514
  c10515
  c10518
  c10519
  c10522
  c10523
  c10526
  c10527
  c10530
  c10531
  c10534
  c10535
  c10538
  c10539
  c10542
  c10543
  c10546
  c10547
  c10548
  c10550
  c10551
  c10554
  c10555
  c10558
  c10559
  c10562
  c10563
  c10567
  c10568
  c10571
  c10572
  c10574
  c10575
  c10578
  c10579
  c10580
  c10582
  c10583
  c10584
  c10586
  c10587
  c10588
  c10590
  c10591
  c10592
  c10594
  c10595
  c10596
  c10598
  c10599
  c10600
  c10602
  c10603
  c10604
  c10606
  c10607
  c10608
  c10610
  c10611
  c10612
  c10614
  c10615
  c10616
  c10618
  c10619
  c10620
  c10622
  c10623
  c10624
  c10626
  c10627
  c10628
  c10630
  c10631
  c10632
  c10634
  c10635
  c10636
  c10638
  c10639
  c10640
  c10642
  c10643
  c10644
  c10646
  c10647
  c10648
  c10650
  c10651
  c10652
  c10654
  c10655
  c10656
  c10658
  c10659
  c10660
  c10662
  c10663
  c10664
  c10666
  c10667
  c10668
  c10670
  c10671
  c10672
  c10674
  c10675
  c10676
  c10678
  c10679
  c10680
  c10682
  c10683
  c10684
  c10686
  c10687
  c10688
  c10690
  c10691
  c10692
  c10694
  c10695
  c10696
  c10698
  c10699
  c107
  c10700
  c10702
  c10703
  c10704
  c10706
  c10707
  c10708
  c10710
  c10711
  c10713
  c10714
  c10715
  c10717
  c10719
  c10720
  c10721
  c10722
  c10723
  c10724
  c10725
  c10726
  c10729
  c10731
  c10732
  c111
  c113
  c114
  c116
  c1166
  c1167
  c1168
  c1169
  c1170
  c1171
  c1172
  c1173
  c1174
  c1175
  c1176
  c1177
  c1178
  c1179
  c1180
  c1181
  c1182
  c1183
  c1193
  c1197
  c1201
  c1205
  c1209
  c1213
  c1217
  c1221
  c1225
  c1229
  c1233
  c1237
  c1241
  c1245
  c1249
  c1253
  c1257
  c1259
  c126
  c1260
  c1262
  c1264
  c1272
  c1275
  c1279
  c1280
  c1281
  c1285
  c1288
  c129
  c1290
  c1291
  c1293
  c1299
  c1303
  c1305
  c1310
  c1311
  c1318
  c1320
  c1323
  c1326
  c1327
  c1328
  c1329
  c1330
  c1331
  c1332
  c1333
  c1334
  c1335
  c1336
  c1337
  c1338
  c1339
  c1340
  c1341
  c1342
  c1343
  c1344
  c1345
  c1346
  c1347
  c1348
  c1349
  c135
  c1350
  c1358
  c1359
  c1361
  c1363
  c1371
  c1374
  c1379
  c1380
  c1384
  c1387
  c1389
  c139
  c1390
  c1392
  c1396
  c1401
  c1402
  c1409
  c1411
  c1414
  c1417
  c1418
  c1419
  c142
  c1420
  c1421
  c1422
  c1423
  c1424
  c1425
  c1426
  c1427
  c1428
  c1429
  c1430
  c1431
  c1432
  c1433
  c1434
  c1435
  c1436
  c1437
  c1438
  c1439
  c144
  c1440
  c1441
  c1449
  c145
  c1450
  c1452
  c1454
  c1462
  c1465
  c1469
  c1470
  c1471
  c1475
  c1478
  c1480
  c1481
  c1483
  c1487
  c1492
  c1493
  c1500
  c1502
  c1505
  c1508
  c1509
  c1510
  c1511
  c1512
  c1513
  c1514
  c1515
  c1516
  c1517
  c1518
  c1519
  c1520
  c1521
  c1522
  c1523
  c1524
  c1525
  c1526
  c1527
  c1528
  c1529
  c153
  c1530
  c1531
  c1532
  c1540
  c1541
  c1543
  c1545
  c1553
  c1556
  c1560
  c1561
  c1562
  c1566
  c1569
  c157
  c1571
  c1572
  c1574
  c1578
  c1583
  c1584
  c159
  c1591
  c1593
  c1596
  c1599
  c1600
  c1601
  c1602
  c1603
  c1604
  c1605
  c1606
  c1607
  c1608
  c1609
  c1610
  c1611
  c1612
  c1613
  c1614
  c1615
  c1616
  c1617
  c1618
  c1619
  c1620
  c1621
  c1622
  c1623
  c1631
  c1632
  c1634
  c1636
  c164
  c1644
  c1647
  c165
  c1652
  c1653
  c1657
  c1660
  c1662
  c1663
  c1666
  c1669
  c1674
  c1675
  c1682
  c1684
  c1687
  c1690
  c1691
  c1692
  c1693
  c1694
  c1695
  c1696
  c1697
  c1698
  c1699
  c1700
  c1701
  c1702
  c1703
  c1704
  c1705
  c1706
  c1707
  c1708
  c1709
  c1710
  c1711
  c1712
  c1713
  c1714
  c172
  c1722
  c1723
  c1725
  c1727
  c1735
  c1738
  c174
  c1743
  c1744
  c1748
  c1751
  c1753
  c1754
  c1756
  c1760
  c1765
  c1766
  c1773
  c1775
  c1778
  c1781
  c1782
  c1783
  c1784
  c1785
  c1786
  c1787
  c1788
  c1789
  c1790
  c1791
  c1792
  c1793
  c1794
  c1795
  c1796
  c1797
  c1798
  c1799
  c180
  c1800
  c1801
  c1802
  c1803
  c1804
  c1805
  c181
  c1813
  c1814
  c1816
  c1818
  c182
  c1823
  c1826
  c1829
  c1833
  c1834
  c1835
  c1839
  c184
  c1842
  c1844
  c1845
  c1847
  c1848
  c185
  c1851
  c1856
  c1857
  c1858
  c1864
  c1866
  c1869
  c187
  c1872
  c1873
  c1874
  c1875
  c1876
  c1877
  c1878
  c1879
  c188
  c1880
  c1881
  c1882
  c1883
  c1884
  c1885
  c1886
  c1887
  c1888
  c1889
  c1890
  c1891
  c1892
  c1893
  c1894
  c1895
  c1896
  c190
  c1904
  c1905
  c1907
  c1909
  c191
  c1914
  c1917
  c1920
  c1924
  c1925
  c1926
  c193
  c1930
  c1933
  c1935
  c1936
  c1938
  c1939
  c194
  c1943
  c1946
  c1947
  c1949
  c1955
  c1957
  c196
  c1960
  c1963
  c1964
  c1965
  c1966
  c1967
  c1968
  c1969
  c197
  c1970
  c1971
  c1972
  c1973
  c1974
  c1975
  c1976
  c1977
  c1978
  c1979
  c1980
  c1981
  c1982
  c1983
  c1984
  c1985
  c1986
  c1987
  c199
  c1995
  c1998
  c20
  c200
  c2000
  c2005
  c2008
  c2011
  c2015
  c2016
  c2017
  c202
  c2021
  c2024
  c2027
  c2029
  c203
  c2030
  c2038
  c2039
  c2040
  c2046
  c2048
  c2051
  c2054
  c2055
  c2056
  c2057
  c2058
  c2059
  c2060
  c2061
  c2062
  c2063
  c2064
  c2065
  c2066
  c2067
  c2068
  c2069
  c2070
  c2071
  c2072
  c2073
  c2074
  c2075
  c2076
  c2077
  c2078
  c2086
  c2087
  c21
  c2100
  c2104
  c2108
  c2112
  c2116
  c212
  c2120
  c2124
  c2128
  c213
  c2132
  c2136
  c2140
  c2144
  c2148
  c215
  c2152
  c2156
  c2160
  c2164
  c2168
  c2169
  c2175
  c2177
  c2187
  c2189
  c22
  c2201
  c2203
  c2211
  c2213
  c2215
  c2223
  c2235
  c2237
  c225
  c2265
  c2267
  c2269
  c2271
  c2273
  c2275
  c2277
  c2279
  c228
  c2280
  c2287
  c2289
  c2291
  c2293
  c2295
  c2297
  c2299
  c23
  c2301
  c2302
  c2310
  c2311
  c2312
  c2313
  c2314
  c2315
  c2316
  c2317
  c2318
  c2319
  c2320
  c2321
  c2322
  c2323
  c2324
  c2325
  c2326
  c2327
  c2328
  c2329
  c2331
  c2332
  c2333
  c2334
  c2335
  c2336
  c2337
  c2338
  c2339
  c234
  c2343
  c2347
  c2351
  c2355
  c2359
  c2363
  c2367
  c2371
  c2375
  c2379
  c238
  c2383
  c2387
  c2391
  c2395
  c2399
  c24
  c2403
  c2405
  c2406
  c2407
  c241
  c2417
  c2418
  c2421
  c2425
  c2426
  c2427
  c243
  c2431
  c2434
  c2437
  c2439
  c244
  c2440
  c2445
  c2449
  c2453
  c2456
  c2457
  c2458
  c2464
  c2466
  c2469
  c2472
  c2473
  c2474
  c2475
  c2476
  c2477
  c2478
  c2479
  c2480
  c2481
  c2482
  c2483
  c2484
  c2485
  c2486
  c2487
  c2488
  c2489
  c2490
  c2491
  c2492
  c2493
  c2494
  c2495
  c2496
  c25
  c250
  c2504
  c2505
  c2507
  c2516
  c2517
  c2520
  c2525
  c2526
  c2530
  c2533
  c2536
  c2538
  c2539
  c2542
  c2544
  c2547
  c2548
  c255
  c2555
  c2557
  c256
  c2560
  c2563
  c2564
  c2565
  c2566
  c2567
  c2568
  c2569
  c2570
  c2571
  c2572
  c2573
  c2574
  c2575
  c2576
  c2577
  c2578
  c2579
  c2580
  c2581
  c2582
  c2583
  c2584
  c2585
  c2586
  c2587
  c2595
  c2596
  c2597
  c26
  c2607
  c2608
  c2611
  c2615
  c2616
  c2617
  c2621
  c2624
  c2625
  c2627
  c2629
  c263
  c2630
  c2637
  c2638
  c2639
  c2640
  c2646
  c2648
  c265
  c2651
  c2654
  c2655
  c2656
  c2657
  c2658
  c2659
  c2660
  c2661
  c2662
  c2663
  c2664
  c2665
  c2666
  c2667
  c2668
  c2669
  c2670
  c2671
  c2672
  c2673
  c2674
  c2675
  c2676
  c2677
  c2678
  c2686
  c2687
  c2689
  c2698
  c2699
  c27
  c2702
  c2706
  c2707
  c2708
  c271
  c2712
  c2715
  c2718
  c272
  c2720
  c2721
  c2724
  c2725
  c2729
  c273
  c2730
  c2731
  c2737
  c2739
  c2742
  c2745
  c2746
  c2747
  c2748
  c2749
  c275
  c2750
  c2751
  c2752
  c2753
  c2754
  c2755
  c2756
  c2757
  c2758
  c2759
  c276
  c2760
  c2761
  c2762
  c2763
  c2764
  c2765
  c2766
  c2767
  c2768
  c2769
  c2777
  c2778
  c278
  c2780
  c2789
  c279
  c2790
  c2793
  c2798
  c2799
  c28
  c2803
  c2806
  c2809
  c281
  c2811
  c2812
  c2815
  c2817
  c282
  c2820
  c2821
  c2828
  c2830
  c2833
  c2836
  c2837
  c2838
  c2839
  c284
  c2840
  c2841
  c2842
  c2843
  c2844
  c2845
  c2846
  c2847
  c2848
  c2849
  c285
  c2850
  c2851
  c2852
  c2853
  c2854
  c2855
  c2856
  c2857
  c2858
  c2859
  c2860
  c2868
  c2869
  c287
  c2871
  c288
  c2880
  c2881
  c2884
  c2889
  c2890
  c2894
  c2897
  c29
  c290
  c2900
  c2902
  c2903
  c2906
  c2907
  c291
  c2911
  c2912
  c2919
  c2921
  c2924
  c2927
  c2928
  c2929
  c293
  c2930
  c2931
  c2932
  c2933
  c2934
  c2935
  c2936
  c2937
  c2938
  c2939
  c294
  c2940
  c2941
  c2942
  c2943
  c2944
  c2945
  c2946
  c2947
  c2948
  c2949
  c2950
  c2951
  c2959
  c2960
  c2962
  c2969
  c2970
  c2971
  c2979
  c2980
  c2985
  c2988
  c2991
  c2993
  c2994
  c30
  c3001
  c3002
  c3003
  c3004
  c3010
  c3012
  c3015
  c3018
  c3019
  c3020
  c3021
  c3022
  c3023
  c3024
  c3025
  c3026
  c3027
  c3028
  c3029
  c303
  c3030
  c3031
  c3032
  c3033
  c3034
  c3035
  c3036
  c3037
  c3038
  c3039
  c3040
  c3041
  c3042
  c305
  c3050
  c3051
  c3053
  c306
  c3060
  c3062
  c3063
  c3070
  c3071
  c3075
  c3076
  c3079
  c3082
  c3084
  c3085
  c3088
  c3089
  c3093
  c3094
  c3095
  c31
  c3101
  c3103
  c3106
  c3109
  c3110
  c3111
  c3112
  c3113
  c3114
  c3115
  c3116
  c3117
  c3118
  c3119
  c3120
  c3121
  c3122
  c3123
  c3124
  c3125
  c3126
  c3127
  c3128
  c3129
  c3130
  c3131
  c3132
  c3133
  c3141
  c3142
  c3144
  c3154
  c3155
  c3157
  c316
  c3161
  c3162
  c3163
  c3167
  c3170
  c3173
  c3175
  c3176
  c3180
  c3184
  c3185
  c3186
  c319
  c3192
  c3194
  c3197
  c32
  c3200
  c3201
  c3202
  c3203
  c3204
  c3205
  c3206
  c3207
  c3208
  c3209
  c3210
  c3211
  c3212
  c3213
  c3214
  c3215
  c3216
  c3217
  c3218
  c3219
  c3220
  c3221
  c3222
  c3223
  c3224
  c3232
  c3233
  c3246
  c325
  c3250
  c3254
  c3258
  c3262
  c3266
  c3270
  c3274
  c3278
  c3282
  c3286
  c329
  c3290
  c3294
  c3298
  c33
  c3302
  c3306
  c3310
  c3314
  c332
  c334
  c335
  c34
  c342
  c3458
  c3459
  c346
  c3460
  c3461
  c3462
  c3463
  c3464
  c3465
  c3466
  c3467
  c3468
  c3469
  c3470
  c3471
  c3472
  c3473
  c3474
  c3475
  c3476
  c3477
  c3478
  c3479
  c348
  c3480
  c3481
  c3482
  c3483
  c3484
  c3485
  c3489
  c3493
  c3497
  c35
  c3501
  c3505
  c3509
  c3513
  c3517
  c3520
  c3521
  c3525
  c3529
  c3533
  c3537
  c354
  c3541
  c3545
  c3549
  c3551
  c3552
  c356
  c3564
  c3565
  c3567
  c3572
  c3573
  c3576
  c3577
  c3580
  c3582
  c3583
  c3585
  c3586
  c3591
  c3595
  c3597
  c3598
  c36
  c3602
  c3603
  c3604
  c3610
  c3612
  c3615
  c3618
  c3619
  c362
  c3620
  c3621
  c3622
  c3623
  c3624
  c3625
  c3626
  c3627
  c3628
  c3629
  c363
  c3630
  c3631
  c3632
  c3633
  c3634
  c3635
  c3636
  c3637
  c3638
  c3639
  c364
  c3640
  c3641
  c3642
  c3650
  c3651
  c3652
  c366
  c3662
  c3663
  c3666
  c367
  c3671
  c3672
  c3676
  c3679
  c3681
  c3682
  c3684
  c3685
  c3688
  c3689
  c369
  c3693
  c3694
  c37
  c370
  c3701
  c3703
  c3706
  c3709
  c3710
  c3711
  c3712
  c3713
  c3714
  c3715
  c3716
  c3717
  c3718
  c3719
  c372
  c3720
  c3721
  c3722
  c3723
  c3724
  c3725
  c3726
  c3727
  c3728
  c3729
  c373
  c3730
  c3731
  c3732
  c3733
  c3741
  c3742
  c375
  c3753
  c3754
  c3757
  c376
  c3762
  c3763
  c3766
  c3767
  c3770
  c3772
  c3773
  c3775
  c3776
  c3779
  c378
  c3780
  c3784
  c3785
  c3786
  c379
  c3792
  c3794
  c3797
  c38
  c3800
  c3801
  c3802
  c3803
  c3804
  c3805
  c3806
  c3807
  c3808
  c3809
  c381
  c3810
  c3811
  c3812
  c3813
  c3814
  c3815
  c3816
  c3817
  c3818
  c3819
  c382
  c3820
  c3821
  c3822
  c3823
  c3824
  c3832
  c3833
  c384
  c3842
  c3844
  c3845
  c385
  c3853
  c3854
  c3858
  c3861
  c3863
  c3864
  c3866
  c3867
  c3870
  c3871
  c3875
  c3876
  c3877
  c3883
  c3885
  c3888
  c3891
  c3892
  c3893
  c3894
  c3895
  c3896
  c3897
  c3898
  c3899
  c39
  c3900
  c3901
  c3902
  c3903
  c3904
  c3905
  c3906
  c3907
  c3908
  c3909
  c3910
  c3911
  c3912
  c3913
  c3914
  c3915
  c3923
  c3924
  c3935
  c3936
  c3939
  c394
  c3944
  c3945
  c3949
  c3952
  c3954
  c3955
  c3957
  c3958
  c396
  c3961
  c3962
  c3966
  c3967
  c397
  c3974
  c3976
  c3979
  c3982
  c3983
  c3984
  c3985
  c3986
  c3987
  c3988
  c3989
  c3990
  c3991
  c3992
  c3993
  c3994
  c3995
  c3996
  c3997
  c3998
  c3999
  c4
  c40
  c4000
  c4001
  c4002
  c4003
  c4004
  c4005
  c4006
  c4014
  c4015
  c4026
  c4027
  c4030
  c4035
  c4036
  c4040
  c4043
  c4045
  c4046
  c4047
  c4048
  c4049
  c4052
  c4053
  c4057
  c4058
  c4065
  c4067
  c407
  c4070
  c4073
  c4074
  c4075
  c4076
  c4077
  c4078
  c4079
  c4080
  c4081
  c4082
  c4083
  c4084
  c4085
  c4086
  c4087
  c4088
  c4089
  c4090
  c4091
  c4092
  c4093
  c4094
  c4095
  c4096
  c4097
  c41
  c410
  c4105
  c4106
  c4115
  c4117
  c4125
  c4126
  c4131
  c4134
  c4136
  c4137
  c4139
  c4140
  c4143
  c4144
  c4148
  c4149
  c4150
  c4156
  c4158
  c416
  c4161
  c4164
  c4165
  c4166
  c4167
  c4168
  c4169
  c4170
  c4171
  c4172
  c4173
  c4174
  c4175
  c4176
  c4177
  c4178
  c4179
  c4180
  c4181
  c4182
  c4183
  c4184
  c4185
  c4186
  c4187
  c4188
  c4196
  c4197
  c42
  c420
  c4206
  c4208
  c4216
  c4217
  c4222
  c4225
  c4227
  c4228
  c423
  c4230
  c4231
  c4234
  c4235
  c4239
  c4240
  c4241
  c4247
  c4249
  c425
  c4252
  c4255
  c4256
  c4257
  c4258
  c4259
  c426
  c4260
  c4261
  c4262
  c4263
  c4264
  c4265
  c4266
  c4267
  c4268
  c4269
  c4270
  c4271
  c4272
  c4273
  c4274
  c4275
  c4276
  c4277
  c4278
  c4279
  c4287
  c4288
  c4297
  c4299
  c43
  c4300
  c4308
  c4309
  c4313
  c4316
  c4318
  c4319
  c432
  c4321
  c4322
  c4325
  c4326
  c4330
  c4331
  c4332
  c4338
  c4340
  c4343
  c4346
  c4347
  c4348
  c4349
  c4350
  c4351
  c4352
  c4353
  c4354
  c4355
  c4356
  c4357
  c4358
  c4359
  c4360
  c4361
  c4362
  c4363
  c4364
  c4365
  c4366
  c4367
  c4368
  c4369
  c437
  c4370
  c4378
  c4379
  c438
  c4392
  c4396
  c44
  c4400
  c4404
  c4408
  c4412
  c4416
  c4420
  c4424
  c4428
  c4431
  c4432
  c4436
  c4440
  c4444
  c4448
  c445
  c4452
  c4456
  c4460
  c447
  c45
  c453
  c4537
  c4539
  c454
  c4541
  c4543
  c4545
  c4547
  c4549
  c455
  c4550
  c4557
  c4559
  c4561
  c4563
  c4565
  c4567
  c4569
  c457
  c4571
  c4572
  c458
  c46
  c460
  c4603
  c4604
  c4605
  c4606
  c4607
  c4608
  c4609
  c461
  c4610
  c4611
  c4612
  c4613
  c4614
  c4615
  c4616
  c4617
  c4618
  c4619
  c4620
  c4621
  c4622
  c4623
  c4624
  c4625
  c4626
  c4627
  c4628
  c4629
  c463
  c4630
  c4631
  c4635
  c4639
  c464
  c4643
  c4647
  c4651
  c4655
  c4659
  c466
  c4663
  c4667
  c467
  c4671
  c4675
  c4679
  c4683
  c4687
  c469
  c4691
  c4695
  c4697
  c4698
  c47
  c470
  c4707
  c4709
  c4717
  c4718
  c472
  c4726
  c4728
  c4729
  c473
  c4731
  c4732
  c4737
  c4741
  c4743
  c4748
  c4749
  c475
  c4756
  c4758
  c4759
  c476
  c4760
  c4761
  c4764
  c4765
  c4766
  c4767
  c4768
  c4769
  c4770
  c4771
  c4772
  c4773
  c4774
  c4775
  c4776
  c4777
  c4778
  c4779
  c4780
  c4781
  c4782
  c4783
  c4784
  c4785
  c4786
  c4787
  c4788
  c4796
  c4797
  c4806
  c4809
  c4818
  c4821
  c4822
  c4825
  c4827
  c4828
  c4829
  c4830
  c4831
  c4834
  c4839
  c4840
  c4847
  c4849
  c485
  c4850
  c4851
  c4852
  c4855
  c4856
  c4857
  c4858
  c4859
  c486
  c4860
  c4861
  c4862
  c4863
  c4864
  c4865
  c4866
  c4867
  c4868
  c4869
  c4870
  c4871
  c4872
  c4873
  c4874
  c4875
  c4876
  c4877
  c4878
  c4879
  c488
  c4887
  c4888
  c4897
  c4900
  c4907
  c4908
  c4916
  c4918
  c4919
  c4921
  c4922
  c4925
  c4930
  c4931
  c4938
  c4940
  c4941
  c4942
  c4943
  c4946
  c4947
  c4948
  c4949
  c4950
  c4951
  c4952
  c4953
  c4954
  c4955
  c4956
  c4957
  c4958
  c4959
  c4960
  c4961
  c4962
  c4963
  c4964
  c4965
  c4966
  c4967
  c4968
  c4969
  c4970
  c4978
  c4979
  c498
  c4988
  c4990
  c4998
  c4999
  c5007
  c5009
  c501
  c5010
  c5012
  c5013
  c5019
  c5021
  c5022
  c5029
  c5031
  c5032
  c5033
  c5034
  c5037
  c5038
  c5039
  c5040
  c5041
  c5042
  c5043
  c5044
  c5045
  c5046
  c5047
  c5048
  c5049
  c5050
  c5051
  c5052
  c5053
  c5054
  c5055
  c5056
  c5057
  c5058
  c5059
  c506
  c5060
  c5061
  c5069
  c507
  c5070
  c5079
  c5082
  c5089
  c5090
  c5098
  c51
  c5100
  c5101
  c5102
  c5103
  c5104
  c5107
  c511
  c5112
  c5113
  c5120
  c5122
  c5123
  c5124
  c5125
  c5128
  c5129
  c5130
  c5131
  c5132
  c5133
  c5134
  c5135
  c5136
  c5137
  c5138
  c5139
  c514
  c5140
  c5141
  c5142
  c5143
  c5144
  c5145
  c5146
  c5147
  c5148
  c5149
  c5150
  c5151
  c5152
  c516
  c5160
  c5161
  c517
  c5170
  c5173
  c5180
  c5181
  c5189
  c5191
  c5192
  c5193
  c5194
  c5195
  c5198
  c5203
  c5204
  c5211
  c5213
  c5214
  c5215
  c5216
  c5219
  c5220
  c5221
  c5222
  c5223
  c5224
  c5225
  c5226
  c5227
  c5228
  c5229
  c523
  c5230
  c5231
  c5232
  c5233
  c5234
  c5235
  c5236
  c5237
  c5238
  c5239
  c5240
  c5241
  c5242
  c5243
  c5252
  c5253
  c5261
  c5263
  c5271
  c5272
  c528
  c5280
  c5282
  c5283
  c5285
  c5286
  c5289
  c529
  c5294
  c5295
  c5296
  c5302
  c5304
  c5305
  c5306
  c5307
  c5310
  c5311
  c5312
  c5313
  c5314
  c5315
  c5316
  c5317
  c5318
  c5319
  c5320
  c5321
  c5322
  c5323
  c5324
  c5325
  c5326
  c5327
  c5328
  c5329
  c5330
  c5331
  c5332
  c5333
  c5334
  c5342
  c5343
  c5352
  c5354
  c536
  c5362
  c5363
  c5371
  c5373
  c5374
  c5376
  c5377
  c538
  c5383
  c5385
  c5386
  c5387
  c5393
  c5395
  c5396
  c5397
  c5398
  c5401
  c5402
  c5403
  c5404
  c5405
  c5406
  c5407
  c5408
  c5409
  c5410
  c5411
  c5412
  c5413
  c5414
  c5415
  c5416
  c5417
  c5418
  c5419
  c5420
  c5421
  c5422
  c5423
  c5424
  c5425
  c5433
  c5434
  c544
  c5443
  c5445
  c545
  c5453
  c5454
  c546
  c5462
  c5464
  c5465
  c5467
  c5468
  c5474
  c5476
  c5477
  c548
  c5484
  c5486
  c5487
  c5488
  c5489
  c549
  c5492
  c5493
  c5494
  c5495
  c5496
  c5497
  c5498
  c5499
  c55
  c5500
  c5501
  c5502
  c5503
  c5504
  c5505
  c5506
  c5507
  c5508
  c5509
  c551
  c5510
  c5511
  c5512
  c5513
  c5514
  c5515
  c5516
  c552
  c5524
  c5525
  c5538
  c554
  c5542
  c5546
  c555
  c5550
  c5554
  c5558
  c5562
  c5566
  c557
  c5570
  c5574
  c5578
  c558
  c5582
  c5586
  c5590
  c5594
  c5598
  c560
  c5602
  c5606
  c561
  c563
  c564
  c566
  c567
  c5703
  c5705
  c5707
  c5709
  c5711
  c5713
  c5715
  c5717
  c5718
  c5725
  c5727
  c5729
  c5731
  c5733
  c5735
  c5737
  c5739
  c5740
  c5748
  c5749
  c5750
  c5751
  c5752
  c5753
  c5754
  c5755
  c5756
  c5757
  c5758
  c5759
  c576
  c5760
  c5761
  c5762
  c5763
  c5764
  c5765
  c5766
  c5767
  c5768
  c5769
  c5770
  c5771
  c5772
  c5773
  c5774
  c5775
  c5776
  c5777
  c578
  c5781
  c5785
  c5789
  c579
  c5793
  c5797
  c5801
  c5805
  c5809
  c5813
  c5817
  c5821
  c5825
  c5829
  c5833
  c5837
  c5841
  c5844
  c5853
  c5863
  c5872
  c5874
  c5875
  c5877
  c5878
  c5883
  c5887
  c589
  c5892
  c59
  c5904
  c5905
  c5906
  c5907
  c5910
  c5911
  c5912
  c5913
  c5914
  c5915
  c5916
  c5917
  c5918
  c5919
  c592
  c5920
  c5921
  c5922
  c5923
  c5924
  c5925
  c5926
  c5927
  c5928
  c5929
  c5930
  c5931
  c5932
  c5933
  c5934
  c5943
  c5952
  c5964
  c5968
  c5971
  c5973
  c5974
  c598
  c5983
  c5995
  c5996
  c5997
  c5998
  c6
  c6001
  c6002
  c6003
  c6004
  c6005
  c6006
  c6007
  c6008
  c6009
  c6010
  c6011
  c6012
  c6013
  c6014
  c6015
  c6016
  c6017
  c6018
  c6019
  c602
  c6020
  c6021
  c6022
  c6023
  c6024
  c6025
  c6034
  c6043
  c605
  c6053
  c6062
  c6064
  c6065
  c6068
  c607
  c6074
  c608
  c6086
  c6088
  c6089
  c6092
  c6093
  c6094
  c6095
  c6096
  c6097
  c6098
  c6099
  c6100
  c6101
  c6102
  c6103
  c6104
  c6105
  c6106
  c6107
  c6108
  c6109
  c6110
  c6111
  c6112
  c6113
  c6114
  c6115
  c6116
  c6125
  c6134
  c6146
  c6153
  c6155
  c6156
  c6158
  c6159
  c6165
  c6177
  c6178
  c6179
  c6180
  c6183
  c6184
  c6185
  c6186
  c6187
  c6188
  c6189
  c619
  c6190
  c6191
  c6192
  c6193
  c6194
  c6195
  c6196
  c6197
  c6198
  c6199
  c620
  c6200
  c6201
  c6202
  c6203
  c6204
  c6205
  c6206
  c6207
  c621
  c6216
  c6225
  c6237
  c6244
  c6246
  c6247
  c6250
  c6256
  c6265
  c6268
  c6269
  c627
  c6270
  c6271
  c6274
  c6275
  c6276
  c6277
  c6278
  c6279
  c6280
  c6281
  c6282
  c6283
  c6284
  c6285
  c6286
  c6287
  c6288
  c6289
  c629
  c6290
  c6291
  c6292
  c6293
  c6294
  c6295
  c6296
  c6297
  c6298
  c63
  c6307
  c6316
  c6328
  c6335
  c6337
  c6338
  c6341
  c6347
  c635
  c6359
  c636
  c6360
  c6361
  c6362
  c6365
  c6366
  c6367
  c6368
  c6369
  c637
  c6370
  c6371
  c6372
  c6373
  c6374
  c6375
  c6376
  c6377
  c6378
  c6379
  c6380
  c6381
  c6382
  c6383
  c6384
  c6385
  c6386
  c6387
  c6388
  c6389
  c639
  c6398
  c640
  c6407
  c6417
  c642
  c6426
  c6428
  c6429
  c643
  c6431
  c6432
  c6438
  c645
  c6450
  c6451
  c6452
  c6453
  c6456
  c6457
  c6458
  c6459
  c646
  c6460
  c6461
  c6462
  c6463
  c6464
  c6465
  c6466
  c6467
  c6468
  c6469
  c6470
  c6471
  c6472
  c6473
  c6474
  c6475
  c6476
  c6477
  c6478
  c6479
  c648
  c6480
  c6489
  c649
  c6498
  c6508
  c651
  c6517
  c6519
  c652
  c6520
  c6522
  c6523
  c6529
  c654
  c6541
  c6542
  c6543
  c6544
  c6547
  c6548
  c6549
  c655
  c6550
  c6551
  c6552
  c6553
  c6554
  c6555
  c6556
  c6557
  c6558
  c6559
  c6560
  c6561
  c6562
  c6563
  c6564
  c6565
  c6566
  c6567
  c6568
  c6569
  c657
  c6570
  c6571
  c658
  c6580
  c6589
  c6599
  c6608
  c6610
  c6611
  c6613
  c6614
  c6620
  c6632
  c6633
  c6634
  c6635
  c6638
  c6639
  c6640
  c6641
  c6642
  c6643
  c6644
  c6645
  c6646
  c6647
  c6648
  c6649
  c6650
  c6651
  c6652
  c6653
  c6654
  c6655
  c6656
  c6657
  c6658
  c6659
  c6660
  c6661
  c6662
  c667
  c6670
  c6671
  c668
  c6684
  c6688
  c6692
  c6696
  c67
  c670
  c6700
  c6704
  c6708
  c6712
  c6716
  c6720
  c6724
  c6728
  c6732
  c6736
  c6740
  c6744
  c6748
  c6752
  c677
  c680
  c683
  c687
  c688
  c689
  c6896
  c6897
  c6898
  c6899
  c6900
  c6901
  c6902
  c6903
  c6904
  c6905
  c6906
  c6907
  c6908
  c6909
  c6910
  c6911
  c6912
  c6913
  c6914
  c6915
  c6916
  c6917
  c6918
  c6919
  c6920
  c6921
  c6922
  c6923
  c6927
  c693
  c6931
  c6935
  c6939
  c6943
  c6947
  c6951
  c6955
  c6959
  c696
  c6963
  c6967
  c6971
  c6975
  c6979
  c698
  c6983
  c6987
  c699
  c6990
  c6999
  c7009
  c7018
  c7020
  c7029
  c7033
  c7038
  c7050
  c7051
  c7052
  c7053
  c7056
  c7057
  c7058
  c7059
  c7060
  c7061
  c7062
  c7063
  c7064
  c7065
  c7066
  c7067
  c7068
  c7069
  c7070
  c7071
  c7072
  c7073
  c7074
  c7075
  c7076
  c7077
  c7078
  c7079
  c7080
  c7089
  c7098
  c71
  c710
  c7108
  c711
  c7117
  c7119
  c712
  c7129
  c7141
  c7142
  c7143
  c7144
  c7147
  c7148
  c7149
  c7150
  c7151
  c7152
  c7153
  c7154
  c7155
  c7156
  c7157
  c7158
  c7159
  c7160
  c7161
  c7162
  c7163
  c7164
  c7165
  c7166
  c7167
  c7168
  c7169
  c7170
  c7171
  c718
  c7180
  c7189
  c7199
  c720
  c7208
  c7210
  c7220
  c7232
  c7233
  c7234
  c7235
  c7238
  c7239
  c7240
  c7241
  c7242
  c7243
  c7244
  c7245
  c7246
  c7247
  c7248
  c7249
  c7250
  c7251
  c7252
  c7253
  c7254
  c7255
  c7256
  c7257
  c7258
  c7259
  c726
  c7260
  c7261
  c7262
  c727
  c7271
  c728
  c7280
  c7290
  c7299
  c730
  c7301
  c731
  c7311
  c7323
  c7324
  c7325
  c7326
  c7329
  c733
  c7330
  c7331
  c7332
  c7333
  c7334
  c7335
  c7336
  c7337
  c7338
  c7339
  c734
  c7340
  c7341
  c7342
  c7343
  c7344
  c7345
  c7346
  c7347
  c7348
  c7349
  c7350
  c7351
  c7352
  c7353
  c736
  c7362
  c737
  c7371
  c7383
  c739
  c7390
  c7392
  c740
  c7402
  c7414
  c7415
  c7416
  c7417
  c742
  c7420
  c7421
  c7422
  c7423
  c7424
  c7425
  c7426
  c7427
  c7428
  c7429
  c743
  c7430
  c7431
  c7432
  c7433
  c7434
  c7435
  c7436
  c7437
  c7438
  c7439
  c7440
  c7441
  c7442
  c7443
  c7444
  c745
  c7453
  c746
  c7462
  c7474
  c748
  c7481
  c7483
  c749
  c7493
  c75
  c7505
  c7506
  c7507
  c7508
  c7511
  c7512
  c7513
  c7514
  c7515
  c7516
  c7517
  c7518
  c7519
  c7520
  c7521
  c7522
  c7523
  c7524
  c7525
  c7526
  c7527
  c7528
  c7529
  c7530
  c7531
  c7532
  c7533
  c7534
  c7535
  c7544
  c7553
  c7563
  c7572
  c7574
  c758
  c7584
  c759
  c7596
  c7597
  c7598
  c7599
  c7602
  c7603
  c7604
  c7605
  c7606
  c7607
  c7608
  c7609
  c761
  c7610
  c7611
  c7612
  c7613
  c7614
  c7615
  c7616
  c7617
  c7618
  c7619
  c7620
  c7621
  c7622
  c7623
  c7624
  c7625
  c7626
  c7635
  c7644
  c7654
  c7663
  c7665
  c7675
  c768
  c7687
  c7688
  c7689
  c7690
  c7693
  c7694
  c7695
  c7696
  c7697
  c7698
  c7699
  c7700
  c7701
  c7702
  c7703
  c7704
  c7705
  c7706
  c7707
  c7708
  c7709
  c771
  c7710
  c7711
  c7712
  c7713
  c7714
  c7715
  c7716
  c7717
  c7726
  c7735
  c774
  c7745
  c7754
  c7756
  c7766
  c7778
  c7779
  c778
  c7780
  c7781
  c7784
  c7785
  c7786
  c7787
  c7788
  c7789
  c779
  c7790
  c7791
  c7792
  c7793
  c7794
  c7795
  c7796
  c7797
  c7798
  c7799
  c780
  c7800
  c7801
  c7802
  c7803
  c7804
  c7805
  c7806
  c7807
  c7808
  c7816
  c7817
  c7830
  c7834
  c7838
  c784
  c7842
  c7846
  c7850
  c7854
  c7858
  c7862
  c7866
  c787
  c7870
  c7874
  c7878
  c7882
  c7886
  c789
  c7890
  c7894
  c7898
  c79
  c790
  c7995
  c7997
  c7999
  c8001
  c8003
  c8005
  c8007
  c8009
  c801
  c8010
  c8017
  c8019
  c802
  c8021
  c8023
  c8025
  c8027
  c8029
  c803
  c8031
  c8032
  c8040
  c8041
  c8042
  c8043
  c8044
  c8045
  c8046
  c8047
  c8048
  c8049
  c8050
  c8051
  c8052
  c8053
  c8054
  c8055
  c8056
  c8057
  c8058
  c8059
  c8060
  c8061
  c8062
  c8063
  c8064
  c8065
  c8066
  c8067
  c8068
  c8069
  c8073
  c8077
  c8081
  c8085
  c8089
  c809
  c8093
  c8097
  c8101
  c8105
  c8109
  c811
  c8113
  c8117
  c8121
  c8125
  c8129
  c8133
  c8135
  c8145
  c8155
  c8164
  c817
  c8175
  c8179
  c818
  c8184
  c819
  c8196
  c8197
  c8198
  c8199
  c8202
  c8203
  c8204
  c8206
  c8207
  c8209
  c821
  c8210
  c8212
  c8213
  c8215
  c8216
  c8218
  c8219
  c822
  c8221
  c8222
  c8224
  c8225
  c8234
  c824
  c8244
  c825
  c8254
  c8263
  c827
  c8275
  c828
  c8287
  c8288
  c8289
  c8290
  c8293
  c8294
  c8295
  c8297
  c8298
  c83
  c830
  c8300
  c8301
  c8303
  c8304
  c8306
  c8307
  c8309
  c831
  c8310
  c8312
  c8313
  c8315
  c8316
  c8325
  c833
  c8335
  c834
  c8345
  c8354
  c836
  c8366
  c837
  c8378
  c8379
  c8380
  c8381
  c8384
  c8385
  c8386
  c8388
  c8389
  c839
  c8391
  c8392
  c8394
  c8395
  c8397
  c8398
  c840
  c8400
  c8401
  c8403
  c8404
  c8406
  c8407
  c8416
  c8426
  c8436
  c8445
  c8457
  c8469
  c8470
  c8471
  c8472
  c8475
  c8476
  c8477
  c8479
  c8480
  c8482
  c8483
  c8485
  c8486
  c8488
  c8489
  c849
  c8491
  c8492
  c8494
  c8495
  c8497
  c8498
  c850
  c8507
  c8517
  c852
  c8527
  c8536
  c8548
  c8560
  c8561
  c8562
  c8563
  c8566
  c8567
  c8568
  c8570
  c8571
  c8573
  c8574
  c8576
  c8577
  c8579
  c8580
  c8582
  c8583
  c8585
  c8586
  c8588
  c8589
  c859
  c8598
  c8608
  c8618
  c862
  c8627
  c8639
  c865
  c8651
  c8652
  c8653
  c8654
  c8657
  c8658
  c8659
  c8661
  c8662
  c8664
  c8665
  c8667
  c8668
  c8670
  c8671
  c8673
  c8674
  c8676
  c8677
  c8679
  c8680
  c8689
  c869
  c8699
  c87
  c870
  c8709
  c871
  c8718
  c8730
  c8742
  c8743
  c8744
  c8745
  c8748
  c8749
  c875
  c8750
  c8752
  c8753
  c8755
  c8756
  c8758
  c8759
  c8761
  c8762
  c8764
  c8765
  c8767
  c8768
  c8770
  c8771
  c878
  c8780
  c8790
  c880
  c8800
  c8809
  c881
  c8821
  c8833
  c8834
  c8835
  c8836
  c8839
  c8840
  c8841
  c8843
  c8844
  c8846
  c8847
  c8849
  c8850
  c8852
  c8853
  c8855
  c8856
  c8858
  c8859
  c8861
  c8862
  c8871
  c888
  c8881
  c8891
  c8900
  c8912
  c892
  c8924
  c8925
  c8926
  c8927
  c8930
  c8931
  c8932
  c8934
  c8935
  c8937
  c8938
  c894
  c8940
  c8941
  c8943
  c8944
  c8946
  c8947
  c8949
  c8950
  c8952
  c8953
  c8962
  c8963
  c8976
  c8980
  c8984
  c8988
  c8992
  c8996
  c900
  c9000
  c9004
  c9008
  c9012
  c9016
  c902
  c9020
  c9024
  c9028
  c9032
  c9036
  c9040
  c9044
  c908
  c909
  c91
  c910
  c912
  c913
  c915
  c916
  c918
  c9188
  c9189
  c919
  c9190
  c9191
  c9192
  c9193
  c9194
  c9195
  c9196
  c9197
  c9198
  c9199
  c9200
  c9201
  c9202
  c9203
  c9204
  c9205
  c921
  c9215
  c922
  c924
  c925
  c927
  c928
  c9282
  c9292
  c930
  c9302
  c931
  c9312
  c9330
  c9339
  c9348
  c9381
  c9391
  c940
  c9401
  c9411
  c9421
  c9430
  c9439
  c9472
  c9482
  c9492
  c95
  c9502
  c9512
  c9521
  c9530
  c954
  c9563
  c9573
  c958
  c9583
  c9593
  c9603
  c9612
  c962
  c9621
  c9654
  c966
  c9664
  c9674
  c9684
  c9694
  c970
  c9703
  c9712
  c974
  c9745
  c9755
  c9765
  c9775
  c978
  c9785
  c9794
  c9803
  c982
  c9836
  c9846
  c9856
  c986
  c9866
  c9876
  c9885
  c9894
  c99
  c990
  c9927
  c9937
  c994
  c9947
  c9957
  c9967
  c9976
  c998
  c9985 )
